20
2  100 300 
2  100 200 
3  200 300 400 
3  100 300 400 
2  100 200 
2  200 300 
2  100 200 
2  200 400 
3  100 300 400 
3  100 200 300 
3  100 200 300 
3  100 200 300 
3  200 300 400 
3  200 300 400 
3  100 200 300 
2  100 300 
3  200 300 400 
2  100 200 
3  200 300 400 
2  300 400 
